
  22    4
  10   10   10   10

   0   0   0   0   0   3 2 3 5 
  10  10  10  10  10   3 8 6 4 
   3  10  10  10  10   4 16 12 10 9 
   2  10  10  10  10   3 12 9 7 
   8  10  10  10  10   3 10 9 7 
   7  10  10  10  10   2 9 7 
   5  10  10  10  10   3 16 13 11 
   2  10  10  10  10   3 16 13 11 
   9  10  10  10  10   2 13 11 
   8  10  10  10  10   2 14 11 
   3  10  10  10  10   3 18 17 15 
   6  10  10  10  10   2 17 15 
   1  10  10  10  10   1 14 
   8  10  10  10  10   1 15 
  10  10  10  10  10   3 21 20 19 
   1  10  10  10  10   3 21 20 19 
   8  10  10  10  10   2 21 20 
   5  10  10  10  10   1 19 
   4  10  10  10  10   1 22
   7  10  10  10  10   1 22
   8  10  10  10  10   1 22
   0   0   0   0   0   0 
